p cnf 50 60
-30 -22 -35 0
50 -26 -15 0
-39 15 -41 0
45 -16 23 0
-14 22 7 0
11 -2 -3 0
29 42 -6 0
27 -30 -11 0
49 2 -13 0
-43 -14 -47 0
-19 -43 -35 0
50 5 31 0
2 -18 -43 0
25 29 24 0
5 -50 37 0
19 30 -43 0
-3 -5 37 0
35 -32 8 0
-41 21 -45 0
-25 21 31 0
42 49 11 0
-39 33 1 0
-21 36 -2 0
-34 -14 -50 0
-32 -29 -43 0
-8 16 31 0
42 -17 29 0
32 1 45 0
32 23 -44 0
-8 -10 -36 0
40 34 27 0
-27 4 -6 0
44 -6 -4 0
7 40 26 0
-9 32 -27 0
24 -29 -18 0
-10 -50 13 0
-29 48 31 0
28 13 16 0
25 -14 -2 0
1 -2 -40 0
-25 -39 49 0
-3 -40 14 0
44 36 35 0
3 12 -4 0
20 47 33 0
37 19 7 0
-14 -5 45 0
42 35 40 0
44 -11 20 0
x 2 3 -4 -5 -7 8 -9 10 11 14 -15 -16 17 19 21 23 -24 -25 -26 27 30 -31 -32 -35 -38 39 41 42 43 44 -46 48 -49 0
x -1 5 6 7 9 13 -15 -16 17 20 -23 25 -27 -30 36 39 40 -41 43 44 -45 47 -50 0
x 2 3 -6 -14 -15 -16 -19 20 -22 25 26 -27 -28 29 -30 -31 33 34 -36 -37 -42 43 44 46 0
x 1 -3 -5 6 -8 -9 14 15 -22 25 -27 -30 32 -34 -35 -37 38 -42 -44 45 -46 -48 50 0
x -3 6 7 -8 10 11 14 -15 16 18 -19 21 22 -23 -25 -27 28 -30 -33 37 -39 -41 -43 46 -49 50 0
x 4 -5 7 -12 14 -15 17 18 23 25 -26 -30 -31 -32 -33 34 35 37 -38 39 40 -41 -45 50 0
x 3 4 5 7 8 -10 11 -12 13 14 -16 -20 22 -23 25 -27 31 32 -34 -36 -37 38 39 41 -46 -47 -48 49 0
x -1 -3 6 -7 -8 -9 -10 -11 -14 18 21 -22 -23 25 -26 28 -29 32 33 34 36 -37 38 41 42 -43 -45 -47 -48 49 0
x -2 3 4 -6 -7 -12 13 14 -16 18 20 -24 -26 -32 -33 34 36 37 38 -41 -43 44 45 -47 -48 0
x 2 -3 4 6 9 10 -11 -12 13 -14 -17 -18 -19 21 -22 28 30 -33 -35 -38 -41 -42 44 45 0
